
<<< setup


<<< generate

Version identifier: 12.10.0.0 | 2019-11-26 | 843d4de2ae
CPXPARAM_TimeLimit                               1200
Tried aggregator 3 times.
MIP Presolve eliminated 5145831 rows and 2914055 columns.
MIP Presolve modified 412636 coefficients.
Aggregator did 636 substitutions.
Reduced MIP has 96583 rows, 96859 columns, and 624718 nonzeros.
Reduced MIP has 96809 binaries, 0 generals, 0 SOSs, and 0 indicators.
Presolve time = 7.39 sec. (4653.32 ticks)
Found incumbent of value 0.000000 after 12.33 sec. (6402.16 ticks)
Probing fixed 3438 vars, tightened 0 bounds.
Probing time = 40.36 sec. (7953.86 ticks)
Tried aggregator 1 time.
Detecting symmetries...
MIP Presolve eliminated 3189 rows and 3438 columns.
Reduced MIP has 93394 rows, 93421 columns, and 602379 nonzeros.
Reduced MIP has 93371 binaries, 0 generals, 0 SOSs, and 0 indicators.
Presolve time = 0.69 sec. (391.26 ticks)
Probing time = 0.25 sec. (51.14 ticks)
Clique table members: 338766.
MIP emphasis: balance optimality and feasibility.
MIP search method: dynamic search.
Parallel mode: deterministic, using up to 4 threads.
Root relaxation solution time = 3.50 sec. (2464.88 ticks)

        Nodes                                         Cuts/
   Node  Left     Objective  IInf  Best Integer    Best Bound    ItCnt     Gap

*     0+    0                            0.0000   133355.0000              --- 
      0     0    72562.0000   572        0.0000    72562.0000     7748     --- 
*     0+    0                        14725.0000    72562.0000           392.78%
      0     0    72562.0000   572    14725.0000      Cuts: 10     8344  392.78%
      0     0    72562.0000   572    14725.0000    Cuts: 4945    14330  392.78%
      0     0    72562.0000   572    14725.0000    Cuts: 1921    24312  392.78%
Heuristic still looking.
      0     2    72562.0000   194    14725.0000    72562.0000    24312  392.78%
Elapsed time = 220.45 sec. (103512.62 ticks, tree = 0.02 MB, solutions = 2)
      1     3    72562.0000   245    14725.0000    72562.0000    25090  392.78%
      2     4    72562.0000   378    14725.0000    72562.0000    35946  392.78%
      3     5    72562.0000   394    14725.0000    72562.0000    36983  392.78%
      4     6    72562.0000   571    14725.0000    72562.0000    50343  392.78%
      5     7    72562.0000   431    14725.0000    72562.0000    62071  392.78%
      6     5    72562.0000   447    14725.0000    72562.0000    44826  392.78%
      7     3    72562.0000   212    14725.0000    72562.0000    24454  392.78%
      8     8    72562.0000   421    14725.0000    72562.0000    74621  392.78%
      9     9    72562.0000   422    14725.0000    72562.0000    83724  392.78%
     11    11    72562.0000   423    14725.0000    72562.0000    96679  392.78%
Elapsed time = 295.97 sec. (133742.77 ticks, tree = 0.20 MB, solutions = 2)
     12    12    72562.0000   449    14725.0000    72562.0000   107390  392.78%
     14    13    72562.0000   455    14725.0000    72562.0000   109624  392.78%
     16    17    72562.0000   414    14725.0000    72562.0000   159852  392.78%
     19    15    72562.0000   381    14725.0000    72562.0000   140602  392.78%
     20    20    72562.0000   521    14725.0000    72562.0000   202512  392.78%
     22    18    72562.0000   367    14725.0000    72562.0000   171107  392.78%
     24    20    72562.0000   396    14725.0000    72562.0000   195639  392.78%
     26    27    72562.0000   457    14725.0000    72562.0000   282981  392.78%
     27    28    72562.0000   395    14725.0000    72562.0000   289193  392.78%
     29    29    72562.0000   369    14725.0000    72562.0000   320796  392.78%
Elapsed time = 368.16 sec. (163815.37 ticks, tree = 0.57 MB, solutions = 2)
     31    29    72562.0000   432    14725.0000    72562.0000   293480  392.78%
     33    28    72562.0000   387    14725.0000    72562.0000   311815  392.78%
     35    31    72562.0000   361    14725.0000    72562.0000   326153  392.78%
     40    30    72562.0000   484    14725.0000    72562.0000   349040  392.78%
     42    34    72562.0000   359    14725.0000    72562.0000   329408  392.78%
     44    34    72562.0000   364    14725.0000    72562.0000   384215  392.78%
     46    35    72562.0000   351    14725.0000    72562.0000   385645  392.78%
     48    42    72562.0000   369    14725.0000    72562.0000   395084  392.78%
     49    36    72562.0000   367    14725.0000    72562.0000   386411  392.78%
     50    43    72562.0000   373    14725.0000    72562.0000   396246  392.78%
Elapsed time = 415.03 sec. (180170.94 ticks, tree = 1.05 MB, solutions = 2)
     54    45    72562.0000   442    14725.0000    72562.0000   398417  392.78%
     56    45    72562.0000   443    14725.0000    72562.0000   411427  392.78%
     62    47    72562.0000   379    14725.0000    72562.0000   412682  392.78%
     65    49    72562.0000   377    14725.0000    72562.0000   423126  392.78%
     66    58    72562.0000   403    14725.0000    72562.0000   448432  392.78%
     67    49    72562.0000   315    14725.0000    72562.0000   421681  392.78%
     68    60    72562.0000   416    14725.0000    72562.0000   475372  392.78%
     70    65    72562.0000   310    14725.0000    72562.0000   500134  392.78%
     71    69    72562.0000   381    14725.0000    72562.0000   530604  392.78%
     73    71    72562.0000   355    14725.0000    72562.0000   532707  392.78%
Elapsed time = 661.16 sec. (220962.56 ticks, tree = 1.82 MB, solutions = 2)
     74    72    72562.0000   328    14725.0000    72562.0000   533120  392.78%
     77    75    72562.0000   343    14725.0000    72562.0000   535568  392.78%
     78    76    72562.0000   339    14725.0000    72562.0000   536796  392.78%
     79    77    72562.0000   336    14725.0000    72562.0000   538570  392.78%
     82    78    72562.0000   324    14725.0000    72562.0000   547197  392.78%
     84    80    72562.0000   402    14725.0000    72562.0000   548964  392.78%
     85    81    72562.0000   309    14725.0000    72562.0000   550259  392.78%
     88    83    72562.0000   330    14725.0000    72562.0000   551694  392.78%
     90    66    72562.0000   346    14725.0000    72562.0000   513887  392.78%
     92    79    72562.0000   363    14725.0000    72562.0000   562961  392.78%
Elapsed time = 703.86 sec. (239429.09 ticks, tree = 2.75 MB, solutions = 2)
     96    83    72562.0000   358    14725.0000    72562.0000   577223  392.78%
     98    88    72562.0000   303    14725.0000    72562.0000   558026  392.78%
    101    90    72562.0000   251    14725.0000    72562.0000   559292  392.78%
    106    94    72562.0000   268    14725.0000    72562.0000   563533  392.78%
    109    84    72562.0000   418    14725.0000    72562.0000   584721  392.78%
    114    95    infeasible          14725.0000    72562.0000   567242  392.78%
    115    86    72562.0000   373    14725.0000    72562.0000   590771  392.78%
    119    88    72562.0000   413    14725.0000    72562.0000   596945  392.78%
    122    89    72562.0000   457    14725.0000    72562.0000   575237  392.78%
    126    90    72562.0000   360    14725.0000    72562.0000   604777  392.78%
Elapsed time = 724.83 sec. (251522.99 ticks, tree = 3.36 MB, solutions = 2)
    128    91    72562.0000   313    14725.0000    72562.0000   577549  392.78%
    136   101    infeasible          14725.0000    72562.0000   660765  392.78%
    143   102    72562.0000   216    14725.0000    72562.0000   662063  392.78%
    145   103    72562.0000   201    14725.0000    72562.0000   664392  392.78%
    151   102    72562.0000   171    14725.0000    72562.0000   665391  392.78%
    155   103    72562.0000   191    14725.0000    72562.0000   666719  392.78%
    170   127    72562.0000   377    14725.0000    72562.0000   721463  392.78%
    182   127    72562.0000   388    14725.0000    72562.0000   728550  392.78%
    186   116    72562.0000   453    14725.0000    72562.0000   689976  392.78%
    189   100    infeasible          14725.0000    72562.0000   676024  392.78%
Elapsed time = 770.70 sec. (265772.31 ticks, tree = 3.65 MB, solutions = 2)
    194   101    72562.0000   195    14725.0000    72562.0000   677661  392.78%
    198   102    72562.0000   306    14725.0000    72562.0000   679619  392.78%
    205   103    72562.0000   206    14725.0000    72562.0000   681169  392.78%
    211   127    72562.0000   266    14725.0000    72562.0000   739920  392.78%
    218   130    72562.0000   379    14725.0000    72562.0000   747743  392.78%
    223   128    72562.0000   176    14725.0000    72562.0000   742825  392.78%
    229   128    72562.0000   192    14725.0000    72562.0000   744315  392.78%
    240   131    72562.0000   396    14725.0000    72562.0000   754796  392.78%
    244   127    72562.0000   171    14725.0000    72562.0000   745264  392.78%
    249   127    72562.0000   325    14725.0000    72562.0000   746971  392.78%
Elapsed time = 798.51 sec. (277444.97 ticks, tree = 4.62 MB, solutions = 2)
    252   128    72562.0000   192    14725.0000    72562.0000   748889  392.78%
    259   127    72562.0000   181    14725.0000    72562.0000   750038  392.78%
    264   126    72562.0000   263    14725.0000    72562.0000   752416  392.78%
    269   127    72562.0000   215    14725.0000    72562.0000   754816  392.78%
    280   127    infeasible          14725.0000    72562.0000   756789  392.78%
    286   128    72562.0000   236    14725.0000    72562.0000   759375  392.78%
    293   137    72562.0000   387    14725.0000    72562.0000   779677  392.78%
    305   125    72562.0000   272    14725.0000    72562.0000   762076  392.78%
    309   125    72562.0000   255    14725.0000    72562.0000   764009  392.78%
    313   135    72562.0000   238    14725.0000    72562.0000   839468  392.78%
Elapsed time = 832.70 sec. (290161.85 ticks, tree = 4.86 MB, solutions = 2)
    318   135    72562.0000   212    14725.0000    72562.0000   841614  392.78%
    323   134    72562.0000   310    14725.0000    72562.0000   842327  392.78%
    333   135    72562.0000   249    14725.0000    72562.0000   844221  392.78%
    343   134    72562.0000   307    14725.0000    72562.0000   845833  392.78%
    345   135    72562.0000   233    14725.0000    72562.0000   848047  392.78%
    355   134    72562.0000   213    14725.0000    72562.0000   849786  392.78%
    361   145    72562.0000   363    14725.0000    72562.0000   887417  392.78%
    362   146    72562.0000   378    14725.0000    72562.0000   891446  392.78%
    364   137    72562.0000   381    14725.0000    72562.0000   875155  392.78%
    372   151    72562.0000   393    14725.0000    72562.0000   917365  392.78%
Elapsed time = 878.41 sec. (308784.03 ticks, tree = 4.94 MB, solutions = 2)
    378   153    72562.0000   351    14725.0000    72562.0000   908558  392.78%
    389   159    infeasible          14725.0000    72562.0000  1000952  392.78%
    392   166    infeasible          14725.0000    72562.0000  1023100  392.78%
    397   164    72562.0000   371    14725.0000    72562.0000  1028922  392.78%
    399   162    infeasible          14725.0000    72562.0000  1033952  392.78%
    400   160    72562.0000   305    14725.0000    72562.0000  1002709  392.78%
    402   151    72562.0000   500    14725.0000    72562.0000   992304  392.78%
    404   166    72562.0000   319    14725.0000    72562.0000  1031106  392.78%
    408   170    72562.0000   465    14725.0000    72562.0000  1096048  392.78%
    413   169    72562.0000   315    14725.0000    72562.0000  1127248  392.78%
Elapsed time = 1110.61 sec. (362618.02 ticks, tree = 5.61 MB, solutions = 2)
    417   162    infeasible          14725.0000    72562.0000  1039170  392.78%
    429   172    72562.0000   320    14725.0000    72562.0000  1140600  392.78%
    446   168    72562.0000   296    14725.0000    72562.0000  1136015  392.78%
Starting limited solution polishing.
    474   168    infeasible          14725.0000    72562.0000  1140132  392.78%
*   482+  179                        19420.0000    72562.0000           273.65%
    515   172    72562.0000   280    19420.0000    72562.0000  1151688  273.65%
    534   183    72562.0000   261    19420.0000    72562.0000  1224993  273.65%
    605   181    infeasible          19420.0000    72562.0000  1233143  273.65%
    647   182    72562.0000   312    19420.0000    72562.0000  1244076  273.65%

Implied bound cuts applied:  681
Flow cuts applied:  7
Mixed integer rounding cuts applied:  1861

Root node processing (before b&c):
  Real time             =  216.28 sec. (102195.33 ticks)
Parallel b&c, 4 threads:
  Real time             =  984.63 sec. (296241.68 ticks)
  Sync time (average)   =  141.46 sec.
  Wait time (average)   =    0.00 sec.
                          ------------
Total (root+branch&cut) = 1200.91 sec. (398437.01 ticks)

<<< solve


OBJECTIVE: 19420

<<< post process


<<< done

